846
1 0 5 776 1 793 1 792 1 791 1 790 1
2 0 5 471 1 29 1 565 1 138 1 119 1
3 0 5 244 1 114 1 642 1 501 1 378 1
4 0 5 662 1 748 1 309 1 247 1 592 1
5 0 5 230 1 351 1 68 1 310 1 237 1
6 0 5 703 1 673 1 422 1 368 1 155 1
7 0 5 309 1 120 1 122 1 429 1 484 1
8 0 5 509 1 655 1 700 1 302 1 594 1
9 0 5 726 1 260 1 238 1 657 1 600 1
10 0 5 358 1 657 1 726 1 420 1 238 1
11 0 5 490 1 74 1 344 1 132 1 374 1
12 0 5 526 1 370 1 297 1 47 1 675 1
13 0 5 659 1 333 1 33 1 142 1 717 1
14 0 5 581 1 614 1 708 1 294 1 452 1
15 0 5 178 1 252 1 72 1 501 1 543 1
16 0 5 33 1 107 1 659 1 139 1 336 1
17 0 5 722 1 265 1 606 1 362 1 563 1
18 0 5 287 1 345 1 636 1 548 1 136 1
19 0 5 682 1 73 1 100 1 695 1 380 1
20 0 5 455 1 669 1 386 1 584 1 353 1
21 0 5 587 1 728 1 97 1 264 1 533 1
22 0 5 308 1 463 1 143 1 649 1 229 1
23 0 5 567 1 246 1 582 1 411 1 151 1
24 0 5 502 1 88 1 681 1 217 1 300 1
25 0 5 130 1 379 1 167 1 606 1 269 1
26 0 5 241 1 399 1 206 1 162 1 530 1
27 0 5 338 1 227 1 146 1 306 1 439 1
28 0 5 630 1 406 1 92 1 626 1 434 1
29 0 5 148 1 565 1 518 1 322 1 109 1
30 0 5 729 1 89 1 237 1 92 1 310 1
31 0 5 692 1 574 1 524 1 109 1 164 1
32 0 5 173 1 571 1 490 1 676 1 11 1
33 0 5 721 1 16 1 609 1 142 1 13 1
34 0 5 186 1 48 1 181 1 712 1 697 1
35 0 5 414 1 689 1 589 1 544 1 588 1
36 0 5 406 1 282 1 137 1 92 1 677 1
37 0 5 529 1 647 1 720 1 641 1 224 1
38 0 5 685 1 473 1 408 1 741 1 112 1
39 0 5 733 1 483 1 242 1 269 1 363 1
40 0 5 71 1 705 1 664 1 555 1 330 1
41 0 5 246 1 511 1 442 1 569 1 52 1
42 0 5 513 1 619 1 544 1 689 1 220 1
43 0 5 648 1 232 1 590 1 316 1 326 1
44 0 5 457 1 395 1 183 1 342 1 468 1
45 0 5 498 1 546 1 668 1 88 1 637 1
46 0 5 640 1 480 1 199 1 397 1 663 1
47 0 5 12 1 370 1 297 1 604 1 145 1
48 0 5 181 1 34 1 186 1 371 1 550 1
49 0 5 491 1 686 1 742 1 193 1 523 1
50 0 5 380 1 695 1 634 1 73 1 311 1
51 0 5 494 1 721 1 139 1 427 1 70 1
52 0 5 323 1 293 1 532 1 396 1 41 1
53 0 5 438 1 516 1 156 1 688 1 623 1
54 0 5 716 1 183 1 421 1 577 1 612 1
55 0 5 726 1 358 1 545 1 260 1 775 1
56 0 5 365 1 239 1 220 1 619 1 382 1
57 0 5 621 1 156 1 207 1 694 1 688 1
58 0 5 517 1 391 1 381 1 650 1 647 1
59 0 5 740 1 350 1 284 1 95 1 660 1
60 0 5 421 1 716 1 474 1 212 1 54 1
61 0 5 283 1 271 1 510 1 389 1 258 1
62 0 5 580 1 160 1 466 1 236 1 328 1
63 0 5 225 1 713 1 633 1 724 1 163 1
64 0 5 178 1 244 1 690 1 378 1 3 1
65 0 5 443 1 522 1 363 1 631 1 251 1
66 0 5 672 1 161 1 280 1 596 1 499 1
67 0 5 506 1 526 1 675 1 196 1 627 1
68 0 5 519 1 310 1 5 1 729 1 676 1
69 0 5 240 1 748 1 662 1 485 1 536 1
70 0 5 427 1 666 1 503 1 659 1 494 1
71 0 5 664 1 40 1 705 1 408 1 685 1
72 0 5 252 1 501 1 399 1 15 1 469 1
73 0 5 380 1 19 1 695 1 682 1 296 1
74 0 5 559 1 710 1 274 1 11 1 223 1
75 0 5 488 1 622 1 285 1 120 1 520 1
76 0 5 190 1 424 1 222 1 735 1 652 1
77 0 5 327 1 536 1 575 1 735 1 76 1
78 0 5 496 1 357 1 508 1 18 1 540 1
79 0 5 322 1 518 1 349 1 109 1 565 1
80 0 5 122 1 652 1 605 1 257 1 738 1
81 0 5 317 1 493 1 593 1 320 1 326 1
82 0 5 450 1 129 1 125 1 199 1 400 1
83 0 5 304 1 290 1 257 1 622 1 605 1
84 0 5 742 1 454 1 686 1 402 1 718 1
85 0 5 704 1 299 1 649 1 90 1 504 1
86 0 5 260 1 600 1 441 1 417 1 475 1
87 0 5 236 1 354 1 160 1 328 1 580 1
88 0 5 300 1 24 1 498 1 502 1 681 1
89 0 5 237 1 137 1 166 1 92 1 729 1
90 0 5 595 1 299 1 443 1 85 1 704 1
91 0 5 409 1 217 1 361 1 687 1 451 1
92 0 5 137 1 406 1 89 1 166 1 36 1
93 0 5 746 1 449 1 470 1 497 1 174 1
94 0 5 221 1 367 1 670 1 706 1 407 1
95 0 5 465 1 284 1 59 1 350 1 295 1
96 0 5 539 1 613 1 325 1 262 1 698 1
97 0 5 728 1 233 1 383 1 587 1 21 1
98 0 5 263 1 699 1 204 1 435 1 542 1
99 0 5 453 1 478 1 629 1 581 1 740 1
100 0 5 213 1 601 1 719 1 682 1 211 1
101 0 5 602 1 52 1 396 1 148 1 323 1
102 0 5 730 1 416 1 637 1 535 1 668 1
103 0 5 426 1 383 1 555 1 343 1 233 1
104 0 5 530 1 142 1 721 1 348 1 717 1
105 0 5 395 1 468 1 140 1 537 1 474 1
106 0 5 636 1 209 1 307 1 258 1 653 1
107 0 5 16 1 287 1 345 1 335 1 216 1
108 0 5 461 1 743 1 208 1 289 1 402 1
109 0 5 524 1 164 1 322 1 29 1 124 1
110 0 5 723 1 265 1 606 1 340 1 665 1
111 0 5 352 1 194 1 392 1 658 1 407 1
112 0 5 741 1 535 1 38 1 456 1 473 1
113 0 5 492 1 253 1 143 1 215 1 247 1
114 0 5 3 1 591 1 378 1 428 1 576 1
115 0 5 531 1 610 1 341 1 656 1 266 1
116 0 5 715 1 169 1 658 1 111 1 732 1
117 0 5 475 1 145 1 545 1 541 1 168 1
118 0 5 707 1 177 1 608 1 381 1 144 1
119 0 5 187 1 653 1 293 1 389 1 565 1
120 0 5 309 1 285 1 7 1 75 1 605 1
121 0 5 355 1 231 1 479 1 610 1 528 1
122 0 5 80 1 605 1 652 1 120 1 7 1
123 0 5 732 1 450 1 658 1 715 1 169 1
124 0 5 736 1 524 1 322 1 574 1 109 1
125 0 5 400 1 82 1 129 1 700 1 433 1
126 0 5 245 1 281 1 698 1 284 1 618 1
127 0 5 520 1 429 1 723 1 273 1 488 1
128 0 5 545 1 210 1 180 1 145 1 55 1
129 0 5 450 1 433 1 82 1 400 1 125 1
130 0 5 25 1 379 1 733 1 167 1 269 1
131 0 5 625 1 287 1 171 1 18 1 345 1
132 0 5 447 1 749 1 344 1 11 1 490 1
133 0 5 326 1 316 1 593 1 648 1 81 1
134 0 5 624 1 660 1 280 1 719 1 597 1
135 0 5 661 1 404 1 447 1 562 1 310 1
136 0 5 636 1 585 1 712 1 538 1 186 1
137 0 5 166 1 92 1 89 1 237 1 36 1
138 0 5 727 1 532 1 293 1 52 1 61 1
139 0 5 494 1 51 1 721 1 287 1 321 1
140 0 5 650 1 537 1 105 1 395 1 474 1
141 0 5 563 1 477 1 268 1 722 1 290 1
142 0 5 274 1 104 1 721 1 33 1 348 1
143 0 5 463 1 113 1 22 1 308 1 492 1
144 0 5 651 1 332 1 177 1 118 1 707 1
145 0 5 198 1 541 1 117 1 773 1 772 1
146 0 5 338 1 27 1 479 1 610 1 528 1
147 0 5 182 1 554 1 313 1 151 1 560 1
148 0 5 532 1 29 1 390 1 101 1 164 1
149 0 5 446 1 430 1 564 1 583 1 282 1
150 0 5 353 1 669 1 445 1 386 1 340 1
151 0 5 560 1 551 1 411 1 182 1 554 1
152 0 5 598 1 254 1 449 1 497 1 590 1
153 0 5 193 1 491 1 49 1 3 1 375 1
154 0 5 367 1 482 1 337 1 221 1 170 1
155 0 5 719 1 267 1 691 1 6 1 597 1
156 0 5 57 1 688 1 53 1 621 1 516 1
157 0 5 674 1 594 1 415 1 302 1 354 1
158 0 5 209 1 458 1 540 1 258 1 625 1
159 0 5 174 1 470 1 288 1 684 1 248 1
160 0 5 62 1 580 1 382 1 236 1 466 1
161 0 5 499 1 66 1 672 1 708 1 339 1
162 0 5 534 1 298 1 241 1 399 1 26 1
163 0 5 225 1 439 1 583 1 228 1 63 1
164 0 5 175 1 692 1 109 1 148 1 390 1
165 0 5 701 1 575 1 195 1 334 1 346 1
166 0 5 137 1 89 1 237 1 92 1 282 1
167 0 5 606 1 340 1 25 1 242 1 130 1
168 0 5 260 1 277 1 180 1 417 1 475 1
169 0 5 392 1 486 1 658 1 116 1 732 1
170 0 5 666 1 221 1 337 1 367 1 427 1
171 0 5 345 1 548 1 636 1 357 1 18 1
172 0 5 360 1 242 1 445 1 435 1 167 1
173 0 5 571 1 32 1 676 1 671 1 490 1
174 0 5 159 1 288 1 470 1 226 1 248 1
175 0 5 164 1 390 1 692 1 148 1 476 1
176 0 5 616 1 397 1 480 1 655 1 700 1
177 0 5 222 1 683 1 118 1 144 1 707 1
178 0 5 64 1 642 1 399 1 501 1 654 1
179 0 5 523 1 661 1 374 1 403 1 576 1
180 0 5 324 1 128 1 86 1 168 1 417 1
181 0 5 48 1 186 1 371 1 34 1 550 1
182 0 5 554 1 147 1 151 1 551 1 511 1
183 0 5 626 1 54 1 716 1 44 1 577 1
184 0 5 595 1 47 1 604 1 297 1 555 1
185 0 5 239 1 349 1 203 1 586 1 619 1
186 0 5 34 1 181 1 48 1 550 1 218 1
187 0 5 119 1 293 1 389 1 653 1 727 1
188 0 5 521 1 41 1 511 1 442 1 323 1
189 0 5 266 1 364 1 656 1 732 1 123 1
190 0 5 76 1 257 1 424 1 605 1 652 1
191 0 5 313 1 618 1 126 1 745 1 613 1
192 0 5 329 1 734 1 512 1 296 1 493 1
193 0 5 686 1 491 1 523 1 319 1 576 1
194 0 5 286 1 407 1 392 1 111 1 364 1
195 0 5 575 1 327 1 334 1 701 1 473 1
196 0 5 67 1 675 1 506 1 579 1 526 1
197 0 5 444 1 641 1 362 1 200 1 529 1
198 0 5 145 1 361 1 314 1 451 1 297 1
199 0 5 663 1 640 1 46 1 82 1 715 1
200 0 5 444 1 197 1 720 1 372 1 362 1
201 0 5 303 1 675 1 643 1 634 1 311 1
202 0 5 552 1 542 1 299 1 649 1 377 1
203 0 5 349 1 586 1 2 1 471 1 565 1
204 0 5 542 1 263 1 98 1 455 1 552 1
205 0 5 553 1 448 1 380 1 226 1 270 1
206 0 5 162 1 654 1 469 1 399 1 690 1
207 0 5 694 1 57 1 331 1 291 1 341 1
208 0 5 289 1 108 1 743 1 403 1 434 1
209 0 5 258 1 106 1 158 1 389 1 307 1
210 0 5 128 1 687 1 91 1 168 1 277 1
211 0 5 601 1 243 1 100 1 634 1 19 1
212 0 5 278 1 366 1 421 1 60 1 517 1
213 0 5 267 1 100 1 682 1 368 1 19 1
214 0 5 628 1 472 1 491 1 576 1 49 1
215 0 5 492 1 113 1 346 1 701 1 253 1
216 0 5 287 1 335 1 345 1 357 1 55 1
217 0 5 409 1 91 1 24 1 502 1 687 1
218 0 5 697 1 312 1 106 1 186 1 371 1
219 0 5 429 1 520 1 273 1 127 1 484 1
220 0 5 387 1 513 1 365 1 56 1 42 1
221 0 5 94 1 170 1 367 1 670 1 154 1
222 0 5 424 1 177 1 683 1 76 1 190 1
223 0 5 710 1 74 1 559 1 398 1 678 1
224 0 5 720 1 608 1 647 1 292 1 388 1
225 0 5 163 1 63 1 713 1 439 1 583 1
226 0 5 579 1 288 1 174 1 570 1 448 1
227 0 5 27 1 341 1 331 1 146 1 207 1
228 0 5 255 1 306 1 439 1 583 1 163 1
229 0 5 308 1 455 1 253 1 463 1 20 1
230 0 5 351 1 5 1 516 1 310 1 68 1
231 0 5 121 1 528 1 479 1 355 1 347 1
232 0 5 43 1 590 1 648 1 499 1 326 1
233 0 5 97 1 555 1 383 1 728 1 426 1
234 0 5 555 1 297 1 604 1 595 1 383 1
235 0 5 731 1 779 1 787 1 786 1 785 1
236 0 5 87 1 160 1 580 1 328 1 62 1
237 0 5 89 1 137 1 166 1 30 1 92 1
238 0 5 410 1 726 1 260 1 261 1 600 1
239 0 5 185 1 56 1 619 1 203 1 42 1
240 0 5 485 1 69 1 662 1 738 1 536 1
241 0 5 26 1 162 1 410 1 534 1 10 1
242 0 5 733 1 369 1 172 1 39 1 167 1
243 0 5 601 1 696 1 211 1 350 1 295 1
244 0 5 3 1 642 1 501 1 114 1 690 1
245 0 5 467 1 126 1 629 1 284 1 95 1
246 0 5 569 1 23 1 41 1 547 1 411 1
247 0 5 592 1 253 1 4 1 566 1 113 1
248 0 5 570 1 288 1 579 1 627 1 226 1
249 0 5 483 1 440 1 269 1 556 1 39 1
250 0 5 452 1 708 1 14 1 499 1 161 1
251 0 5 699 1 363 1 552 1 369 1 377 1
252 0 5 572 1 714 1 376 1 501 1 469 1
253 0 5 247 1 113 1 592 1 229 1 566 1
254 0 5 497 1 152 1 598 1 449 1 512 1
255 0 5 228 1 583 1 306 1 620 1 439 1
256 0 5 432 1 633 1 612 1 421 1 212 1
257 0 5 304 1 190 1 83 1 605 1 290 1
258 0 5 389 1 209 1 462 1 61 1 158 1
259 0 5 358 1 772 1 770 1 769 1 768 1
260 0 5 545 1 86 1 417 1 475 1 168 1
261 0 5 534 1 726 1 410 1 238 1 358 1
262 0 5 698 1 539 1 709 1 295 1 235 1
263 0 5 98 1 204 1 542 1 699 1 552 1
264 0 5 533 1 21 1 728 1 587 1 143 1
265 0 5 17 1 110 1 723 1 606 1 722 1
266 0 5 275 1 656 1 189 1 364 1 658 1
267 0 5 213 1 155 1 719 1 100 1 703 1
268 0 5 372 1 362 1 563 1 141 1 477 1
269 0 5 379 1 249 1 733 1 25 1 606 1
270 0 5 558 1 296 1 73 1 682 1 448 1
271 0 5 711 1 791 1 790 1 789 1 788 1
272 0 5 667 1 387 1 588 1 513 1 689 1
273 0 5 611 1 520 1 127 1 219 1 484 1
274 0 5 142 1 710 1 74 1 13 1 223 1
275 0 5 266 1 656 1 364 1 407 1 189 1
276 0 5 665 1 723 1 340 1 606 1 127 1
277 0 5 502 1 475 1 681 1 687 1 417 1
278 0 5 212 1 517 1 474 1 421 1 60 1
279 0 5 678 1 557 1 413 1 459 1 378 1
280 0 5 624 1 134 1 660 1 740 1 66 1
281 0 5 745 1 126 1 698 1 613 1 262 1
282 0 5 36 1 430 1 436 1 137 1 564 1
283 0 5 61 1 780 1 778 1 777 1 776 1
284 0 5 465 1 95 1 59 1 350 1 126 1
285 0 5 622 1 120 1 75 1 83 1 488 1
286 0 5 194 1 407 1 670 1 94 1 352 1
287 0 5 717 1 335 1 18 1 216 1 107 1
288 0 5 174 1 248 1 579 1 226 1 159 1
289 0 5 208 1 108 1 461 1 319 1 402 1
290 0 5 477 1 83 1 257 1 304 1 268 1
291 0 5 725 1 464 1 436 1 623 1 620 1
292 0 5 608 1 388 1 720 1 224 1 424 1
293 0 5 532 1 52 1 187 1 727 1 119 1
294 0 5 478 1 614 1 14 1 99 1 740 1
295 0 5 465 1 698 1 709 1 243 1 696 1
296 0 5 270 1 73 1 682 1 558 1 192 1
297 0 5 234 1 604 1 409 1 91 1 12 1
298 0 5 162 1 546 1 668 1 637 1 45 1
299 0 5 504 1 85 1 90 1 649 1 202 1
300 0 5 88 1 705 1 24 1 409 1 555 1
301 0 5 638 1 589 1 352 1 364 1 646 1
302 0 5 594 1 674 1 157 1 700 1 8 1
303 0 5 201 1 634 1 643 1 311 1 675 1
304 0 5 83 1 605 1 257 1 290 1 122 1
305 0 5 775 1 792 1 791 1 790 1 789 1
306 0 5 228 1 255 1 27 1 439 1 331 1
307 0 5 158 1 106 1 209 1 258 1 496 1
308 0 5 229 1 22 1 143 1 455 1 377 1
309 0 5 7 1 662 1 120 1 566 1 738 1
310 0 5 729 1 68 1 519 1 5 1 237 1
311 0 5 634 1 643 1 201 1 50 1 303 1
312 0 5 697 1 603 1 218 1 371 1 34 1
313 0 5 191 1 147 1 182 1 554 1 613 1
314 0 5 541 1 198 1 145 1 779 1 777 1
315 0 5 418 1 724 1 338 1 439 1 146 1
316 0 5 593 1 133 1 326 1 648 1 493 1
317 0 5 320 1 81 1 493 1 514 1 703 1
318 0 5 626 1 507 1 743 1 630 1 434 1
319 0 5 402 1 523 1 628 1 289 1 491 1
320 0 5 317 1 514 1 81 1 493 1 739 1
321 0 5 706 1 515 1 494 1 712 1 139 1
322 0 5 79 1 109 1 29 1 124 1 349 1
323 0 5 52 1 602 1 396 1 101 1 727 1
324 0 5 681 1 180 1 600 1 277 1 88 1
325 0 5 573 1 96 1 235 1 731 1 773 1
326 0 5 133 1 316 1 593 1 81 1 422 1
327 0 5 575 1 77 1 195 1 334 1 536 1
328 0 5 466 1 655 1 412 1 236 1 62 1
329 0 5 192 1 558 1 448 1 734 1 493 1
330 0 5 664 1 473 1 38 1 40 1 408 1
331 0 5 725 1 207 1 227 1 620 1 623 1
332 0 5 651 1 144 1 537 1 473 1 707 1
333 0 5 13 1 142 1 74 1 274 1 70 1
334 0 5 195 1 327 1 707 1 177 1 77 1
335 0 5 287 1 216 1 18 1 345 1 171 1
336 0 5 721 1 287 1 33 1 51 1 104 1
337 0 5 170 1 393 1 482 1 154 1 367 1
338 0 5 146 1 27 1 315 1 724 1 439 1
339 0 5 596 1 673 1 703 1 267 1 280 1
340 0 5 167 1 669 1 665 1 584 1 150 1
341 0 5 227 1 531 1 207 1 115 1 610 1
342 0 5 639 1 384 1 454 1 457 1 44 1
343 0 5 701 1 705 1 473 1 383 1 40 1
344 0 5 11 1 374 1 132 1 74 1 356 1
345 0 5 357 1 625 1 18 1 171 1 540 1
346 0 5 561 1 215 1 701 1 165 1 492 1
347 0 5 479 1 528 1 146 1 693 1 315 1
348 0 5 104 1 142 1 530 1 394 1 410 1
349 0 5 203 1 371 1 185 1 322 1 586 1
350 0 5 59 1 243 1 597 1 284 1 601 1
351 0 5 230 1 516 1 5 1 310 1 676 1
352 0 5 111 1 589 1 364 1 301 1 392 1
353 0 5 386 1 150 1 669 1 445 1 455 1
354 0 5 87 1 674 1 302 1 655 1 423 1
355 0 5 121 1 610 1 231 1 189 1 146 1
356 0 5 344 1 676 1 132 1 749 1 11 1
357 0 5 540 1 711 1 345 1 458 1 625 1
358 0 5 55 1 10 1 259 1 410 1 238 1
359 0 5 747 1 576 1 559 1 591 1 459 1
360 0 5 172 1 445 1 669 1 340 1 150 1
361 0 5 198 1 451 1 91 1 687 1 117 1
362 0 5 197 1 268 1 722 1 444 1 17 1
363 0 5 556 1 251 1 369 1 699 1 39 1
364 0 5 656 1 407 1 352 1 658 1 301 1
365 0 5 56 1 220 1 382 1 387 1 160 1
366 0 5 641 1 212 1 517 1 58 1 278 1
367 0 5 154 1 482 1 221 1 94 1 170 1
368 0 5 739 1 703 1 682 1 19 1 213 1
369 0 5 435 1 242 1 699 1 363 1 251 1
370 0 5 12 1 604 1 314 1 541 1 297 1
371 0 5 586 1 349 1 603 1 550 1 697 1
372 0 5 268 1 720 1 444 1 200 1 362 1
373 0 5 348 1 420 1 358 1 726 1 717 1
374 0 5 447 1 344 1 179 1 132 1 661 1
375 0 5 153 1 460 1 193 1 428 1 491 1
376 0 5 500 1 252 1 384 1 342 1 639 1
377 0 5 552 1 649 1 504 1 251 1 542 1
378 0 5 642 1 114 1 591 1 3 1 678 1
379 0 5 25 1 269 1 130 1 733 1 606 1
380 0 5 73 1 50 1 634 1 19 1 205 1
381 0 5 391 1 58 1 650 1 118 1 608 1
382 0 5 365 1 160 1 667 1 744 1 387 1
383 0 5 555 1 97 1 233 1 426 1 343 1
384 0 5 639 1 342 1 500 1 376 1 572 1
385 0 5 145 1 117 1 541 1 545 1 314 1
386 0 5 353 1 455 1 669 1 445 1 150 1
387 0 5 220 1 272 1 513 1 667 1 689 1
388 0 5 292 1 683 1 608 1 224 1 720 1
389 0 5 187 1 462 1 258 1 61 1 119 1
390 0 5 175 1 476 1 148 1 164 1 52 1
391 0 5 381 1 647 1 58 1 224 1 608 1
392 0 5 407 1 169 1 194 1 111 1 658 1
393 0 5 671 1 337 1 170 1 173 1 32 1
394 0 5 557 1 530 1 104 1 420 1 348 1
395 0 5 474 1 105 1 44 1 468 1 140 1
396 0 5 727 1 323 1 52 1 293 1 602 1
397 0 5 480 1 176 1 46 1 616 1 644 1
398 0 5 678 1 591 1 223 1 459 1 710 1
399 0 5 690 1 654 1 162 1 469 1 557 1
400 0 5 125 1 693 1 433 1 129 1 82 1
401 0 5 646 1 544 1 603 1 414 1 312 1
402 0 5 454 1 319 1 84 1 108 1 743 1
403 0 5 562 1 523 1 661 1 208 1 179 1
404 0 5 562 1 135 1 661 1 729 1 519 1
405 0 5 577 1 677 1 564 1 36 1 406 1
406 0 5 36 1 92 1 677 1 28 1 405 1
407 0 5 286 1 364 1 392 1 194 1 111 1
408 0 5 664 1 685 1 38 1 71 1 330 1
409 0 5 217 1 91 1 297 1 300 1 88 1
410 0 5 238 1 726 1 348 1 358 1 261 1
411 0 5 569 1 151 1 511 1 525 1 560 1
412 0 5 466 1 744 1 328 1 644 1 397 1
413 0 5 459 1 472 1 747 1 576 1 214 1
414 0 5 35 1 544 1 401 1 589 1 638 1
415 0 5 423 1 157 1 674 1 594 1 302 1
416 0 5 730 1 572 1 535 1 102 1 714 1
417 0 5 260 1 475 1 277 1 86 1 600 1
418 0 5 315 1 724 1 338 1 63 1 439 1
419 0 5 521 1 602 1 283 1 573 1 731 1
420 0 5 530 1 373 1 238 1 410 1 495 1
421 0 5 60 1 612 1 54 1 212 1 716 1
422 0 5 673 1 6 1 81 1 326 1 593 1
423 0 5 415 1 674 1 354 1 157 1 302 1
424 0 5 222 1 292 1 190 1 683 1 720 1
425 0 5 581 1 549 1 453 1 99 1 14 1
426 0 5 103 1 383 1 701 1 233 1 728 1
427 0 5 70 1 666 1 51 1 494 1 170 1
428 0 5 114 1 3 1 49 1 378 1 153 1
429 0 5 219 1 520 1 127 1 566 1 273 1
430 0 5 149 1 282 1 436 1 564 1 623 1
431 0 5 462 1 389 1 61 1 2 1 119 1
432 0 5 256 1 612 1 633 1 421 1 446 1
433 0 5 129 1 693 1 617 1 400 1 125 1
434 0 5 743 1 507 1 461 1 630 1 208 1
435 0 5 369 1 699 1 242 1 98 1 172 1
436 0 5 464 1 291 1 623 1 430 1 725 1
437 0 5 735 1 536 1 738 1 76 1 190 1
438 0 5 489 1 516 1 53 1 676 1 571 1
439 0 5 163 1 724 1 228 1 583 1 338 1
440 0 5 556 1 527 1 249 1 631 1 599 1
441 0 5 600 1 86 1 128 1 417 1 238 1
442 0 5 511 1 521 1 41 1 551 1 151 1
443 0 5 65 1 90 1 299 1 522 1 504 1
444 0 5 200 1 197 1 362 1 372 1 268 1
445 0 5 360 1 669 1 150 1 172 1 386 1
446 0 5 713 1 149 1 633 1 612 1 432 1
447 0 5 132 1 374 1 749 1 661 1 519 1
448 0 5 553 1 329 1 558 1 205 1 270 1
449 0 5 93 1 152 1 598 1 254 1 497 1
450 0 5 82 1 129 1 123 1 486 1 199 1
451 0 5 361 1 198 1 687 1 91 1 475 1
452 0 5 590 1 250 1 14 1 708 1 499 1
453 0 5 99 1 629 1 425 1 549 1 581 1
454 0 5 718 1 402 1 84 1 342 1 639 1
455 0 5 20 1 386 1 669 1 204 1 229 1
456 0 5 535 1 112 1 741 1 102 1 668 1
457 0 5 44 1 342 1 645 1 112 1 639 1
458 0 5 540 1 357 1 496 1 625 1 345 1
459 0 5 576 1 747 1 413 1 359 1 398 1
460 0 5 491 1 428 1 153 1 375 1 3 1
461 0 5 108 1 434 1 743 1 289 1 208 1
462 0 5 389 1 653 1 258 1 431 1 119 1
463 0 5 22 1 143 1 85 1 229 1 308 1
464 0 5 436 1 291 1 620 1 725 1 623 1
465 0 5 95 1 284 1 295 1 350 1 126 1
466 0 5 412 1 328 1 62 1 744 1 580 1
467 0 5 629 1 245 1 126 1 740 1 284 1
468 0 5 105 1 473 1 741 1 537 1 395 1
469 0 5 501 1 654 1 642 1 399 1 206 1
470 0 5 684 1 159 1 174 1 746 1 226 1
471 0 5 565 1 2 1 29 1 518 1 119 1
472 0 5 491 1 523 1 686 1 628 1 193 1
473 0 5 38 1 741 1 468 1 330 1 343 1
474 0 5 395 1 60 1 716 1 650 1 278 1
475 0 5 117 1 417 1 277 1 260 1 451 1
476 0 5 547 1 390 1 692 1 574 1 175 1
477 0 5 290 1 141 1 268 1 83 1 563 1
478 0 5 294 1 614 1 740 1 99 1 14 1
479 0 5 347 1 528 1 146 1 231 1 121 1
480 0 5 397 1 607 1 46 1 737 1 176 1
481 0 5 277 1 88 1 300 1 180 1 324 1
482 0 5 154 1 367 1 656 1 337 1 671 1
483 0 5 249 1 39 1 269 1 733 1 242 1
484 0 5 566 1 273 1 219 1 429 1 611 1
485 0 5 240 1 536 1 738 1 69 1 662 1
486 0 5 715 1 169 1 392 1 116 1 450 1
487 0 5 679 1 627 1 631 1 67 1 196 1
488 0 5 75 1 622 1 568 1 127 1 520 1
489 0 5 516 1 438 1 571 1 676 1 53 1
490 0 5 11 1 74 1 132 1 32 1 344 1
491 0 5 193 1 686 1 49 1 319 1 576 1
492 0 5 113 1 215 1 533 1 143 1 701 1
493 0 5 81 1 734 1 593 1 317 1 320 1
494 0 5 51 1 139 1 321 1 706 1 70 1
495 0 5 717 1 420 1 336 1 726 1 238 1
496 0 5 78 1 458 1 18 1 548 1 357 1
497 0 5 254 1 512 1 449 1 598 1 152 1
498 0 5 45 1 88 1 546 1 668 1 300 1
499 0 5 161 1 708 1 672 1 66 1 452 1
500 0 5 376 1 384 1 639 1 342 1 718 1
501 0 5 469 1 252 1 244 1 3 1 642 1
502 0 5 24 1 681 1 277 1 217 1 687 1
503 0 5 70 1 427 1 494 1 508 1 139 1
504 0 5 522 1 299 1 85 1 649 1 377 1
505 0 5 731 1 789 1 788 1 787 1 786 1
506 0 5 67 1 675 1 201 1 526 1 196 1
507 0 5 743 1 318 1 434 1 630 1 626 1
508 0 5 515 1 78 1 548 1 18 1 287 1
509 0 5 700 1 8 1 655 1 594 1 302 1
510 0 5 61 1 283 1 778 1 777 1 776 1
511 0 5 442 1 551 1 411 1 569 1 41 1
512 0 5 734 1 192 1 497 1 598 1 493 1
513 0 5 42 1 220 1 387 1 689 1 619 1
514 0 5 320 1 739 1 317 1 703 1 493 1
515 0 5 508 1 321 1 494 1 139 1 712 1
516 0 5 489 1 351 1 438 1 230 1 53 1
517 0 5 278 1 58 1 391 1 474 1 212 1
518 0 5 79 1 565 1 29 1 322 1 148 1
519 0 5 749 1 68 1 676 1 447 1 310 1
520 0 5 127 1 429 1 219 1 273 1 488 1
521 0 5 442 1 188 1 41 1 511 1 551 1
522 0 5 504 1 631 1 65 1 443 1 299 1
523 0 5 179 1 403 1 319 1 576 1 628 1
524 0 5 109 1 736 1 124 1 574 1 31 1
525 0 5 551 1 521 1 151 1 442 1 573 1
526 0 5 12 1 67 1 675 1 506 1 595 1
527 0 5 599 1 440 1 249 1 556 1 363 1
528 0 5 479 1 347 1 231 1 146 1 121 1
529 0 5 641 1 37 1 647 1 197 1 720 1
530 0 5 104 1 394 1 557 1 410 1 348 1
531 0 5 610 1 115 1 341 1 227 1 355 1
532 0 5 148 1 293 1 52 1 565 1 138 1
533 0 5 264 1 492 1 143 1 701 1 21 1
534 0 5 261 1 162 1 546 1 241 1 26 1
535 0 5 572 1 456 1 112 1 416 1 730 1
536 0 5 735 1 485 1 77 1 437 1 240 1
537 0 5 140 1 332 1 468 1 650 1 474 1
538 0 5 458 1 78 1 508 1 496 1 209 1
539 0 5 613 1 96 1 262 1 281 1 325 1
540 0 5 357 1 625 1 458 1 845 1 781 1
541 0 5 314 1 145 1 768 1 767 1 766 1
542 0 5 204 1 202 1 263 1 552 1 377 1
543 0 5 178 1 252 1 72 1 15 1 572 1
544 0 5 603 1 401 1 619 1 414 1 42 1
545 0 5 55 1 789 1 788 1 787 1 786 1
546 0 5 534 1 498 1 298 1 45 1 241 1
547 0 5 635 1 476 1 246 1 390 1 52 1
548 0 5 625 1 171 1 18 1 357 1 345 1
549 0 5 425 1 126 1 629 1 99 1 453 1
550 0 5 586 1 653 1 371 1 186 1 48 1
551 0 5 511 1 151 1 442 1 560 1 573 1
552 0 5 377 1 649 1 202 1 251 1 542 1
553 0 5 448 1 205 1 226 1 329 1 558 1
554 0 5 182 1 147 1 151 1 551 1 325 1
555 0 5 234 1 383 1 705 1 233 1 40 1
556 0 5 440 1 363 1 631 1 249 1 242 1
557 0 5 394 1 530 1 678 1 398 1 104 1
558 0 5 270 1 329 1 448 1 493 1 296 1
559 0 5 74 1 223 1 710 1 359 1 274 1
560 0 5 151 1 551 1 411 1 325 1 573 1
561 0 5 748 1 575 1 346 1 69 1 536 1
562 0 5 404 1 403 1 661 1 135 1 729 1
563 0 5 141 1 722 1 268 1 477 1 17 1
564 0 5 677 1 149 1 405 1 577 1 36 1
565 0 5 471 1 518 1 29 1 532 1 119 1
566 0 5 592 1 484 1 309 1 429 1 247 1
567 0 5 582 1 23 1 411 1 246 1 151 1
568 0 5 622 1 488 1 723 1 285 1 75 1
569 0 5 246 1 411 1 511 1 41 1 442 1
570 0 5 248 1 579 1 196 1 627 1 226 1
571 0 5 676 1 173 1 671 1 749 1 32 1
572 0 5 535 1 714 1 252 1 416 1 384 1
573 0 5 325 1 551 1 521 1 419 1 235 1
574 0 5 31 1 736 1 524 1 124 1 476 1
575 0 5 327 1 561 1 195 1 77 1 701 1
576 0 5 747 1 359 1 523 1 591 1 491 1
577 0 5 405 1 677 1 54 1 564 1 183 1
578 0 5 676 1 571 1 490 1 749 1 132 1
579 0 5 570 1 226 1 288 1 248 1 67 1
580 0 5 62 1 160 1 236 1 466 1 87 1
581 0 5 425 1 14 1 453 1 99 1 294 1
582 0 5 567 1 635 1 23 1 246 1 151 1
583 0 5 255 1 228 1 163 1 149 1 439 1
584 0 5 669 1 611 1 340 1 20 1 127 1
585 0 5 712 1 136 1 636 1 34 1 186 1
586 0 5 371 1 550 1 203 1 349 1 565 1
587 0 5 21 1 728 1 97 1 85 1 704 1
588 0 5 689 1 737 1 607 1 272 1 35 1
589 0 5 35 1 607 1 352 1 301 1 414 1
590 0 5 452 1 232 1 648 1 43 1 598 1
591 0 5 678 1 114 1 398 1 359 1 576 1
592 0 5 247 1 566 1 253 1 309 1 4 1
593 0 5 316 1 81 1 326 1 493 1 133 1
594 0 5 302 1 157 1 674 1 8 1 354 1
595 0 5 184 1 90 1 704 1 234 1 526 1
596 0 5 339 1 66 1 280 1 691 1 155 1
597 0 5 660 1 350 1 601 1 691 1 134 1
598 0 5 152 1 254 1 497 1 449 1 512 1
599 0 5 527 1 627 1 248 1 159 1 631 1
600 0 5 441 1 86 1 324 1 681 1 238 1
601 0 5 211 1 243 1 100 1 660 1 597 1
602 0 5 323 1 101 1 396 1 727 1 419 1
603 0 5 544 1 619 1 371 1 401 1 312 1
604 0 5 234 1 297 1 184 1 370 1 47 1
605 0 5 304 1 122 1 257 1 83 1 190 1
606 0 5 167 1 723 1 25 1 265 1 276 1
607 0 5 589 1 588 1 480 1 658 1 111 1
608 0 5 292 1 224 1 388 1 118 1 391 1
609 0 5 33 1 721 1 336 1 335 1 287 1
610 0 5 531 1 355 1 121 1 146 1 115 1
611 0 5 584 1 273 1 127 1 20 1 340 1
612 0 5 432 1 421 1 54 1 256 1 577 1
613 0 5 539 1 281 1 745 1 96 1 698 1
614 0 5 294 1 478 1 14 1 708 1 99 1
615 0 5 158 1 781 1 780 1 779 1 778 1
616 0 5 176 1 655 1 663 1 700 1 397 1
617 0 5 693 1 433 1 129 1 400 1 347 1
618 0 5 745 1 191 1 126 1 281 1 613 1
619 0 5 42 1 603 1 544 1 239 1 349 1
620 0 5 725 1 464 1 291 1 331 1 436 1
621 0 5 694 1 57 1 688 1 156 1 702 1
622 0 5 568 1 285 1 488 1 75 1 83 1
623 0 5 291 1 436 1 53 1 464 1 688 1
624 0 5 134 1 280 1 597 1 660 1 691 1
625 0 5 540 1 785 1 784 1 845 1 772 1
626 0 5 318 1 183 1 507 1 630 1 28 1
627 0 5 599 1 487 1 196 1 570 1 248 1
628 0 5 523 1 319 1 214 1 193 1 472 1
629 0 5 467 1 245 1 740 1 453 1 99 1
630 0 5 28 1 318 1 507 1 434 1 626 1
631 0 5 679 1 522 1 65 1 487 1 556 1
632 0 5 508 1 712 1 321 1 218 1 585 1
633 0 5 713 1 63 1 256 1 446 1 432 1
634 0 5 311 1 380 1 211 1 303 1 643 1
635 0 5 547 1 582 1 476 1 574 1 567 1
636 0 5 136 1 106 1 712 1 538 1 78 1
637 0 5 668 1 102 1 730 1 416 1 714 1
638 0 5 646 1 301 1 414 1 94 1 401 1
639 0 5 342 1 384 1 500 1 718 1 454 1
640 0 5 46 1 199 1 663 1 397 1 176 1
641 0 5 529 1 366 1 197 1 647 1 37 1
642 0 5 654 1 690 1 244 1 378 1 469 1
643 0 5 311 1 634 1 201 1 303 1 696 1
644 0 5 737 1 744 1 412 1 480 1 397 1
645 0 5 718 1 454 1 375 1 384 1 500 1
646 0 5 401 1 638 1 706 1 632 1 301 1
647 0 5 37 1 391 1 224 1 529 1 641 1
648 0 5 43 1 316 1 590 1 326 1 133 1
649 0 5 377 1 85 1 552 1 299 1 704 1
650 0 5 140 1 537 1 474 1 381 1 58 1
651 0 5 144 1 332 1 537 1 473 1 118 1
652 0 5 80 1 190 1 122 1 76 1 257 1
653 0 5 119 1 550 1 187 1 389 1 462 1
654 0 5 642 1 469 1 399 1 690 1 206 1
655 0 5 8 1 328 1 616 1 509 1 176 1
656 0 5 364 1 275 1 482 1 266 1 189 1
657 0 5 10 1 410 1 9 1 530 1 238 1
658 0 5 732 1 392 1 111 1 169 1 116 1
659 0 5 51 1 16 1 287 1 494 1 721 1
660 0 5 134 1 597 1 601 1 280 1 719 1
661 0 5 135 1 447 1 179 1 403 1 562 1
662 0 5 738 1 309 1 4 1 240 1 69 1
663 0 5 199 1 640 1 616 1 46 1 82 1
664 0 5 408 1 71 1 705 1 330 1 685 1
665 0 5 276 1 340 1 723 1 606 1 167 1
666 0 5 170 1 427 1 70 1 670 1 367 1
667 0 5 272 1 744 1 382 1 387 1 412 1
668 0 5 637 1 298 1 45 1 498 1 102 1
669 0 5 584 1 150 1 445 1 340 1 353 1
670 0 5 706 1 221 1 666 1 94 1 427 1
671 0 5 702 1 393 1 571 1 482 1 173 1
672 0 5 66 1 161 1 499 1 280 1 740 1
673 0 5 422 1 6 1 703 1 339 1 691 1
674 0 5 157 1 302 1 594 1 423 1 354 1
675 0 5 506 1 201 1 526 1 67 1 370 1
676 0 5 749 1 571 1 519 1 578 1 356 1
677 0 5 564 1 405 1 577 1 406 1 36 1
678 0 5 398 1 591 1 223 1 378 1 279 1
679 0 5 631 1 487 1 627 1 363 1 65 1
680 0 5 541 1 314 1 145 1 604 1 361 1
681 0 5 502 1 324 1 24 1 277 1 88 1
682 0 5 19 1 213 1 100 1 73 1 296 1
683 0 5 177 1 388 1 222 1 424 1 224 1
684 0 5 470 1 746 1 159 1 288 1 449 1
685 0 5 408 1 38 1 664 1 473 1 330 1
686 0 5 193 1 84 1 491 1 742 1 523 1
687 0 5 91 1 451 1 361 1 502 1 277 1
688 0 5 156 1 621 1 53 1 57 1 623 1
689 0 5 588 1 35 1 42 1 544 1 513 1
690 0 5 642 1 399 1 654 1 206 1 244 1
691 0 5 719 1 155 1 597 1 134 1 596 1
692 0 5 31 1 164 1 175 1 476 1 109 1
693 0 5 617 1 433 1 400 1 700 1 125 1
694 0 5 621 1 702 1 207 1 57 1 688 1
695 0 5 50 1 73 1 19 1 296 1 380 1
696 0 5 243 1 295 1 311 1 643 1 634 1
697 0 5 312 1 371 1 218 1 34 1 603 1
698 0 5 281 1 262 1 295 1 126 1 613 1
699 0 5 435 1 251 1 369 1 98 1 542 1
700 0 5 509 1 8 1 302 1 693 1 176 1
701 0 5 343 1 165 1 533 1 426 1 195 1
702 0 5 671 1 694 1 516 1 621 1 571 1
703 0 5 739 1 6 1 368 1 673 1 267 1
704 0 5 595 1 85 1 649 1 90 1 587 1
705 0 5 555 1 40 1 71 1 300 1 343 1
706 0 5 670 1 321 1 646 1 494 1 515 1
707 0 5 118 1 177 1 144 1 334 1 683 1
708 0 5 250 1 14 1 499 1 452 1 161 1
709 0 5 295 1 262 1 698 1 243 1 731 1
710 0 5 74 1 223 1 274 1 559 1 398 1
711 0 5 271 1 791 1 790 1 789 1 788 1
712 0 5 585 1 136 1 321 1 34 1 636 1
713 0 5 633 1 446 1 63 1 225 1 163 1
714 0 5 572 1 252 1 416 1 637 1 668 1
715 0 5 116 1 486 1 732 1 169 1 658 1
716 0 5 60 1 54 1 474 1 183 1 421 1
717 0 5 104 1 287 1 721 1 33 1 348 1
718 0 5 454 1 84 1 342 1 639 1 645 1
719 0 5 691 1 155 1 100 1 267 1 660 1
720 0 5 224 1 37 1 292 1 372 1 424 1
721 0 5 51 1 104 1 33 1 142 1 139 1
722 0 5 17 1 563 1 362 1 141 1 265 1
723 0 5 110 1 276 1 265 1 665 1 606 1
724 0 5 418 1 315 1 439 1 63 1 338 1
725 0 5 291 1 620 1 331 1 464 1 436 1
726 0 5 55 1 410 1 261 1 238 1 545 1
727 0 5 396 1 293 1 138 1 101 1 602 1
728 0 5 97 1 21 1 587 1 233 1 264 1
729 0 5 30 1 310 1 89 1 237 1 404 1
730 0 5 416 1 102 1 535 1 637 1 572 1
731 0 5 235 1 781 1 789 1 788 1 787 1
732 0 5 123 1 658 1 715 1 169 1 116 1
733 0 5 242 1 39 1 130 1 269 1 379 1
734 0 5 512 1 192 1 493 1 329 1 448 1
735 0 5 437 1 536 1 738 1 76 1 190 1
736 0 5 124 1 524 1 574 1 109 1 31 1
737 0 5 644 1 480 1 607 1 744 1 397 1
738 0 5 662 1 485 1 309 1 240 1 735 1
739 0 5 703 1 368 1 514 1 6 1 267 1
740 0 5 59 1 478 1 280 1 629 1 660 1
741 0 5 112 1 38 1 473 1 468 1 456 1
742 0 5 84 1 686 1 454 1 49 1 491 1
743 0 5 507 1 434 1 108 1 318 1 461 1
744 0 5 667 1 412 1 644 1 466 1 382 1
745 0 5 618 1 281 1 613 1 126 1 698 1
746 0 5 93 1 684 1 470 1 449 1 159 1
747 0 5 576 1 359 1 523 1 591 1 459 1
748 0 5 69 1 561 1 4 1 662 1 240 1
749 0 5 519 1 676 1 132 1 447 1 571 1
750 0 5 776 1 793 1 792 1 791 1 790 1
751 0 5 776 1 793 1 792 1 791 1 790 1
752 0 5 776 1 793 1 792 1 791 1 790 1
753 0 5 776 1 793 1 792 1 791 1 790 1
754 0 5 776 1 793 1 792 1 791 1 790 1
755 0 5 776 1 793 1 792 1 791 1 790 1
756 0 5 776 1 793 1 792 1 791 1 790 1
757 0 5 776 1 793 1 792 1 791 1 790 1
758 0 5 776 1 793 1 792 1 791 1 790 1
759 0 5 776 1 793 1 792 1 791 1 790 1
760 0 5 776 1 793 1 792 1 791 1 790 1
761 0 5 776 1 793 1 792 1 791 1 790 1
762 0 5 776 1 793 1 792 1 791 1 790 1
763 0 5 776 1 793 1 792 1 791 1 790 1
764 0 5 776 1 793 1 792 1 791 1 790 1
765 0 5 776 1 793 1 792 1 791 1 790 1
766 0 5 776 1 793 1 792 1 791 1 790 1
767 0 5 776 1 793 1 792 1 791 1 790 1
768 0 5 776 1 793 1 792 1 791 1 790 1
769 0 5 776 1 793 1 792 1 791 1 790 1
770 0 5 776 1 793 1 792 1 791 1 790 1
771 0 5 776 1 793 1 792 1 791 1 790 1
772 0 5 776 1 793 1 792 1 791 1 790 1
773 0 5 776 1 793 1 792 1 791 1 790 1
774 0 5 776 1 793 1 792 1 791 1 790 1
775 0 5 776 1 793 1 792 1 791 1 790 1
776 0 5 776 1 793 1 792 1 791 1 790 1
777 0 5 776 1 793 1 792 1 791 1 790 1
778 0 5 776 1 793 1 792 1 791 1 790 1
779 0 5 776 1 793 1 792 1 791 1 790 1
780 0 5 776 1 793 1 792 1 791 1 790 1
781 0 5 776 1 793 1 792 1 791 1 790 1
782 0 5 776 1 793 1 792 1 791 1 790 1
783 0 5 776 1 793 1 792 1 791 1 790 1
784 0 5 776 1 793 1 792 1 791 1 790 1
785 0 5 776 1 793 1 792 1 791 1 790 1
786 0 5 776 1 793 1 792 1 791 1 790 1
787 0 5 776 1 793 1 792 1 791 1 790 1
788 0 5 776 1 793 1 792 1 791 1 790 1
789 0 5 776 1 793 1 792 1 791 1 790 1
790 0 5 776 1 793 1 792 1 791 1 790 1
791 0 5 776 1 793 1 792 1 791 1 790 1
792 0 5 776 1 793 1 792 1 791 1 790 1
793 0 5 776 1 793 1 792 1 791 1 790 1
794 0 5 776 1 793 1 792 1 791 1 790 1
795 0 5 776 1 793 1 792 1 791 1 790 1
796 0 5 776 1 793 1 792 1 791 1 790 1
797 0 5 776 1 793 1 792 1 791 1 790 1
798 0 5 776 1 793 1 792 1 791 1 790 1
799 0 5 776 1 793 1 792 1 791 1 790 1
800 0 5 776 1 793 1 792 1 791 1 790 1
801 0 5 776 1 793 1 792 1 791 1 790 1
802 0 5 776 1 793 1 792 1 791 1 790 1
803 0 5 776 1 793 1 792 1 791 1 790 1
804 0 5 776 1 793 1 792 1 791 1 790 1
805 0 5 776 1 793 1 792 1 791 1 790 1
806 0 5 776 1 793 1 792 1 791 1 790 1
807 0 5 776 1 793 1 792 1 791 1 790 1
808 0 5 776 1 793 1 792 1 791 1 790 1
809 0 5 776 1 793 1 792 1 791 1 790 1
810 0 5 776 1 793 1 792 1 791 1 790 1
811 0 5 776 1 793 1 792 1 791 1 790 1
812 0 5 776 1 793 1 792 1 791 1 790 1
813 0 5 776 1 793 1 792 1 791 1 790 1
814 0 5 776 1 793 1 792 1 791 1 790 1
815 0 5 776 1 793 1 792 1 791 1 790 1
816 0 5 776 1 793 1 792 1 791 1 790 1
817 0 5 776 1 793 1 792 1 791 1 790 1
818 0 5 776 1 793 1 792 1 791 1 790 1
819 0 5 776 1 793 1 792 1 791 1 790 1
820 0 5 776 1 793 1 792 1 791 1 790 1
821 0 5 776 1 793 1 792 1 791 1 790 1
822 0 5 776 1 793 1 792 1 791 1 790 1
823 0 5 776 1 793 1 792 1 791 1 790 1
824 0 5 776 1 793 1 792 1 791 1 790 1
825 0 5 776 1 793 1 792 1 791 1 790 1
826 0 5 776 1 793 1 792 1 791 1 790 1
827 0 5 776 1 793 1 792 1 791 1 790 1
828 0 5 776 1 793 1 792 1 791 1 790 1
829 0 5 776 1 793 1 792 1 791 1 790 1
830 0 5 776 1 793 1 792 1 791 1 790 1
831 0 5 776 1 793 1 792 1 791 1 790 1
832 0 5 776 1 793 1 792 1 791 1 790 1
833 0 5 776 1 793 1 792 1 791 1 790 1
834 0 5 776 1 793 1 792 1 791 1 790 1
835 0 5 776 1 793 1 792 1 791 1 790 1
836 0 5 776 1 793 1 792 1 791 1 790 1
837 0 5 776 1 793 1 792 1 791 1 790 1
838 0 5 776 1 793 1 792 1 791 1 790 1
839 0 5 776 1 793 1 792 1 791 1 790 1
840 0 5 776 1 793 1 792 1 791 1 790 1
841 0 5 776 1 793 1 792 1 791 1 790 1
842 0 5 776 1 793 1 792 1 791 1 790 1
843 0 5 776 1 793 1 792 1 791 1 790 1
844 0 5 776 1 793 1 792 1 791 1 790 1
845 0 5 776 1 793 1 792 1 791 1 790 1
846 0 5 776 1 793 1 792 1 791 1 790 1
-1
EOF
